c strEdges: 125  randomEdges: 504 
c degrees:  1  2 
c girth: Inf max: -43.604516  
c Hgirth mixed MAXCUT instance
c generated from an undirected graph
c to solve unweighted MaxCut
p cnf 140 1258
85 120 0
-85 -120 0
85 41 0
-85 -41 0
124 99 0
-124 -99 0
124 118 0
-124 -118 0
100 49 0
-100 -49 0
100 51 0
-100 -51 0
138 28 0
-138 -28 0
23 59 0
-23 -59 0
23 48 0
-23 -48 0
73 108 0
-73 -108 0
73 2 0
-73 -2 0
47 118 0
-47 -118 0
47 56 0
-47 -56 0
33 98 0
-33 -98 0
17 126 0
-17 -126 0
17 71 0
-17 -71 0
130 5 0
-130 -5 0
130 84 0
-130 -84 0
136 50 0
-136 -50 0
136 98 0
-136 -98 0
1 74 0
-1 -74 0
1 15 0
-1 -15 0
10 82 0
-10 -82 0
10 86 0
-10 -86 0
70 7 0
-70 -7 0
70 9 0
-70 -9 0
19 21 0
-19 -21 0
19 82 0
-19 -82 0
72 2 0
-72 -2 0
72 27 0
-72 -27 0
25 132 0
-25 -132 0
75 60 0
-75 -60 0
75 3 0
-75 -3 0
79 4 0
-79 -4 0
119 51 0
-119 -51 0
119 116 0
-119 -116 0
6 105 0
-6 -105 0
6 120 0
-6 -120 0
91 96 0
-91 -96 0
91 21 0
-91 -21 0
112 109 0
-112 -109 0
112 94 0
-112 -94 0
57 86 0
-57 -86 0
139 104 0
-139 -104 0
61 117 0
-61 -117 0
61 104 0
-61 -104 0
123 71 0
-123 -71 0
123 109 0
-123 -109 0
58 66 0
-58 -66 0
58 13 0
-58 -13 0
88 83 0
-88 -83 0
88 4 0
-88 -4 0
121 135 0
-121 -135 0
121 54 0
-121 -54 0
52 111 0
-52 -111 0
52 5 0
-52 -5 0
129 81 0
-129 -81 0
129 8 0
-129 -8 0
22 46 0
-22 -46 0
22 108 0
-22 -108 0
89 11 0
-89 -11 0
31 80 0
-31 -80 0
55 24 0
-55 -24 0
55 81 0
-55 -81 0
127 63 0
-127 -63 0
127 135 0
-127 -135 0
62 15 0
-62 -15 0
62 132 0
-62 -132 0
38 77 0
-38 -77 0
38 46 0
-38 -46 0
87 133 0
-87 -133 0
87 49 0
-87 -49 0
92 42 0
-92 -42 0
92 97 0
-92 -97 0
106 36 0
-106 -36 0
106 24 0
-106 -24 0
39 97 0
-39 -97 0
40 134 0
-40 -134 0
40 80 0
-40 -80 0
35 27 0
-35 -27 0
102 125 0
-102 -125 0
102 103 0
-102 -103 0
93 12 0
-93 -12 0
93 122 0
-93 -122 0
137 94 0
-137 -94 0
137 11 0
-137 -11 0
29 69 0
-29 -69 0
29 83 0
-29 -83 0
140 114 0
-140 -114 0
140 105 0
-140 -105 0
32 48 0
-32 -48 0
32 99 0
-32 -99 0
26 8 0
-26 -8 0
128 103 0
-128 -103 0
128 111 0
-128 -111 0
107 13 0
-107 -13 0
107 134 0
-107 -134 0
65 95 0
-65 -95 0
65 101 0
-65 -101 0
16 122 0
-16 -122 0
16 66 0
-16 -66 0
64 84 0
-64 -84 0
64 14 0
-64 -14 0
67 56 0
-67 -56 0
67 28 0
-67 -28 0
78 116 0
-78 -116 0
34 68 0
-34 -68 0
34 42 0
-34 -42 0
20 18 0
-20 -18 0
20 133 0
-20 -133 0
90 54 0
-90 -54 0
43 41 0
-43 -41 0
43 125 0
-43 -125 0
53 131 0
-53 -131 0
115 9 0
-115 -9 0
115 95 0
-115 -95 0
110 3 0
-110 -3 0
110 96 0
-110 -96 0
44 101 0
-44 -101 0
44 117 0
-44 -117 0
30 37 0
-30 -37 0
30 63 0
-30 -63 0
113 76 0
-113 -76 0
113 18 0
-113 -18 0
45 14 0
-45 -14 0
85 80 0
-85 -80 0
65 60 0
-65 -60 0
63 116 0
-63 -116 0
35 104 0
-35 -104 0
137 51 0
-137 -51 0
65 41 0
-65 -41 0
36 8 0
-36 -8 0
89 55 0
-89 -55 0
123 126 0
-123 -126 0
5 15 0
-5 -15 0
41 101 0
-41 -101 0
122 18 0
-122 -18 0
25 112 0
-25 -112 0
136 69 0
-136 -69 0
79 88 0
-79 -88 0
124 16 0
-124 -16 0
38 24 0
-38 -24 0
30 41 0
-30 -41 0
121 53 0
-121 -53 0
74 54 0
-74 -54 0
70 61 0
-70 -61 0
53 110 0
-53 -110 0
28 86 0
-28 -86 0
110 103 0
-110 -103 0
85 25 0
-85 -25 0
121 111 0
-121 -111 0
72 105 0
-72 -105 0
102 32 0
-102 -32 0
58 131 0
-58 -131 0
102 18 0
-102 -18 0
57 58 0
-57 -58 0
123 40 0
-123 -40 0
33 34 0
-33 -34 0
93 95 0
-93 -95 0
27 95 0
-27 -95 0
53 97 0
-53 -97 0
21 116 0
-21 -116 0
128 34 0
-128 -34 0
44 94 0
-44 -94 0
137 34 0
-137 -34 0
58 7 0
-58 -7 0
118 122 0
-118 -122 0
120 9 0
-120 -9 0
8 101 0
-8 -101 0
72 34 0
-72 -34 0
135 101 0
-135 -101 0
22 103 0
-22 -103 0
62 65 0
-62 -65 0
62 117 0
-62 -117 0
61 42 0
-61 -42 0
8 122 0
-8 -122 0
95 14 0
-95 -14 0
75 132 0
-75 -132 0
22 45 0
-22 -45 0
39 115 0
-39 -115 0
19 16 0
-19 -16 0
45 69 0
-45 -69 0
3 101 0
-3 -101 0
93 133 0
-93 -133 0
17 108 0
-17 -108 0
128 63 0
-128 -63 0
124 119 0
-124 -119 0
139 64 0
-139 -64 0
79 29 0
-79 -29 0
35 21 0
-35 -21 0
65 86 0
-65 -86 0
118 80 0
-118 -80 0
100 11 0
-100 -11 0
77 116 0
-77 -116 0
113 80 0
-113 -80 0
50 7 0
-50 -7 0
73 103 0
-73 -103 0
129 68 0
-129 -68 0
124 94 0
-124 -94 0
51 105 0
-51 -105 0
51 13 0
-51 -13 0
70 110 0
-70 -110 0
58 102 0
-58 -102 0
58 12 0
-58 -12 0
73 51 0
-73 -51 0
17 34 0
-17 -34 0
88 86 0
-88 -86 0
121 71 0
-121 -71 0
29 116 0
-29 -116 0
132 42 0
-132 -42 0
60 95 0
-60 -95 0
63 76 0
-63 -76 0
25 51 0
-25 -51 0
107 12 0
-107 -12 0
92 7 0
-92 -7 0
6 110 0
-6 -110 0
39 56 0
-39 -56 0
89 108 0
-89 -108 0
28 76 0
-28 -76 0
61 39 0
-61 -39 0
113 28 0
-113 -28 0
47 68 0
-47 -68 0
59 60 0
-59 -60 0
33 111 0
-33 -111 0
39 103 0
-39 -103 0
61 46 0
-61 -46 0
93 126 0
-93 -126 0
38 45 0
-38 -45 0
130 129 0
-130 -129 0
58 87 0
-58 -87 0
122 56 0
-122 -56 0
91 98 0
-91 -98 0
88 36 0
-88 -36 0
91 135 0
-91 -135 0
10 30 0
-10 -30 0
127 14 0
-127 -14 0
104 103 0
-104 -103 0
121 114 0
-121 -114 0
47 79 0
-47 -79 0
58 32 0
-58 -32 0
6 51 0
-6 -51 0
133 18 0
-133 -18 0
85 114 0
-85 -114 0
34 125 0
-34 -125 0
134 13 0
-134 -13 0
43 28 0
-43 -28 0
19 72 0
-19 -72 0
23 40 0
-23 -40 0
22 54 0
-22 -54 0
4 63 0
-4 -63 0
121 12 0
-121 -12 0
43 134 0
-43 -134 0
43 27 0
-43 -27 0
72 24 0
-72 -24 0
60 122 0
-60 -122 0
115 37 0
-115 -37 0
110 95 0
-110 -95 0
25 52 0
-25 -52 0
51 109 0
-51 -109 0
93 43 0
-93 -43 0
111 27 0
-111 -27 0
61 24 0
-61 -24 0
100 96 0
-100 -96 0
127 28 0
-127 -28 0
66 97 0
-66 -97 0
53 98 0
-53 -98 0
98 7 0
-98 -7 0
32 68 0
-32 -68 0
133 14 0
-133 -14 0
92 60 0
-92 -60 0
86 134 0
-86 -134 0
22 34 0
-22 -34 0
17 51 0
-17 -51 0
31 68 0
-31 -68 0
79 128 0
-79 -128 0
58 4 0
-58 -4 0
33 43 0
-33 -43 0
46 68 0
-46 -68 0
89 24 0
-89 -24 0
51 42 0
-51 -42 0
106 115 0
-106 -115 0
10 31 0
-10 -31 0
52 120 0
-52 -120 0
78 11 0
-78 -11 0
16 21 0
-16 -21 0
57 90 0
-57 -90 0
74 105 0
-74 -105 0
57 103 0
-57 -103 0
137 36 0
-137 -36 0
90 50 0
-90 -50 0
66 68 0
-66 -68 0
38 21 0
-38 -21 0
100 140 0
-100 -140 0
74 86 0
-74 -86 0
102 110 0
-102 -110 0
26 16 0
-26 -16 0
40 35 0
-40 -35 0
34 41 0
-34 -41 0
129 77 0
-129 -77 0
51 46 0
-51 -46 0
136 74 0
-136 -74 0
123 32 0
-123 -32 0
124 116 0
-124 -116 0
128 2 0
-128 -2 0
107 63 0
-107 -63 0
32 101 0
-32 -101 0
38 90 0
-38 -90 0
16 45 0
-16 -45 0
52 3 0
-52 -3 0
139 110 0
-139 -110 0
90 12 0
-90 -12 0
65 3 0
-65 -3 0
11 125 0
-11 -125 0
91 140 0
-91 -140 0
100 110 0
-100 -110 0
133 95 0
-133 -95 0
108 51 0
-108 -51 0
31 54 0
-31 -54 0
26 53 0
-26 -53 0
62 109 0
-62 -109 0
19 58 0
-19 -58 0
19 53 0
-19 -53 0
113 42 0
-113 -42 0
87 18 0
-87 -18 0
40 13 0
-40 -13 0
55 7 0
-55 -7 0
31 115 0
-31 -115 0
39 133 0
-39 -133 0
88 38 0
-88 -38 0
119 94 0
-119 -94 0
27 76 0
-27 -76 0
138 82 0
-138 -82 0
78 74 0
-78 -74 0
129 3 0
-129 -3 0
123 107 0
-123 -107 0
137 66 0
-137 -66 0
93 66 0
-93 -66 0
138 26 0
-138 -26 0
55 9 0
-55 -9 0
70 137 0
-70 -137 0
124 44 0
-124 -44 0
117 84 0
-117 -84 0
5 69 0
-5 -69 0
70 118 0
-70 -118 0
46 14 0
-46 -14 0
59 94 0
-59 -94 0
64 37 0
-64 -37 0
53 7 0
-53 -7 0
138 97 0
-138 -97 0
130 97 0
-130 -97 0
71 81 0
-71 -81 0
138 98 0
-138 -98 0
140 86 0
-140 -86 0
1 125 0
-1 -125 0
93 24 0
-93 -24 0
70 120 0
-70 -120 0
5 14 0
-5 -14 0
47 43 0
-47 -43 0
72 90 0
-72 -90 0
19 50 0
-19 -50 0
126 77 0
-126 -77 0
65 69 0
-65 -69 0
85 107 0
-85 -107 0
121 63 0
-121 -63 0
138 1 0
-138 -1 0
26 64 0
-26 -64 0
26 15 0
-26 -15 0
139 53 0
-139 -53 0
25 62 0
-25 -62 0
87 29 0
-87 -29 0
85 20 0
-85 -20 0
126 81 0
-126 -81 0
17 111 0
-17 -111 0
74 41 0
-74 -41 0
108 114 0
-108 -114 0
65 5 0
-65 -5 0
61 68 0
-61 -68 0
22 78 0
-22 -78 0
86 13 0
-86 -13 0
128 51 0
-128 -51 0
118 71 0
-118 -71 0
123 88 0
-123 -88 0
35 120 0
-35 -120 0
33 19 0
-33 -19 0
109 94 0
-109 -94 0
124 52 0
-124 -52 0
136 120 0
-136 -120 0
66 27 0
-66 -27 0
72 107 0
-72 -107 0
33 61 0
-33 -61 0
124 132 0
-124 -132 0
26 21 0
-26 -21 0
28 27 0
-28 -27 0
133 41 0
-133 -41 0
93 71 0
-93 -71 0
57 140 0
-57 -140 0
72 26 0
-72 -26 0
32 77 0
-32 -77 0
123 54 0
-123 -54 0
93 113 0
-93 -113 0
70 69 0
-70 -69 0
70 67 0
-70 -67 0
58 40 0
-58 -40 0
83 36 0
-83 -36 0
55 42 0
-55 -42 0
80 8 0
-80 -8 0
49 68 0
-49 -68 0
21 94 0
-21 -94 0
21 111 0
-21 -111 0
136 37 0
-136 -37 0
97 101 0
-97 -101 0
1 11 0
-1 -11 0
100 95 0
-100 -95 0
92 103 0
-92 -103 0
22 135 0
-22 -135 0
31 116 0
-31 -116 0
124 37 0
-124 -37 0
47 84 0
-47 -84 0
1 51 0
-1 -51 0
73 32 0
-73 -32 0
112 131 0
-112 -131 0
111 95 0
-111 -95 0
91 87 0
-91 -87 0
103 68 0
-103 -68 0
51 135 0
-51 -135 0
107 109 0
-107 -109 0
57 22 0
-57 -22 0
20 82 0
-20 -82 0
137 69 0
-137 -69 0
78 14 0
-78 -14 0
47 46 0
-47 -46 0
43 135 0
-43 -135 0
113 69 0
-113 -69 0
19 139 0
-19 -139 0
79 12 0
-79 -12 0
39 90 0
-39 -90 0
112 137 0
-112 -137 0
100 131 0
-100 -131 0
25 87 0
-25 -87 0
58 105 0
-58 -105 0
67 21 0
-67 -21 0
85 86 0
-85 -86 0
89 56 0
-89 -56 0
83 134 0
-83 -134 0
72 20 0
-72 -20 0
32 105 0
-32 -105 0
130 92 0
-130 -92 0
87 117 0
-87 -117 0
53 54 0
-53 -54 0
61 140 0
-61 -140 0
6 44 0
-6 -44 0
106 96 0
-106 -96 0
77 76 0
-77 -76 0
78 110 0
-78 -110 0
52 90 0
-52 -90 0
119 18 0
-119 -18 0
43 45 0
-43 -45 0
59 117 0
-59 -117 0
48 54 0
-48 -54 0
119 113 0
-119 -113 0
1 36 0
-1 -36 0
128 65 0
-128 -65 0
74 82 0
-74 -82 0
94 95 0
-94 -95 0
67 53 0
-67 -53 0
121 20 0
-121 -20 0
90 117 0
-90 -117 0
45 98 0
-45 -98 0
40 110 0
-40 -110 0
127 76 0
-127 -76 0
24 76 0
-24 -76 0
105 69 0
-105 -69 0
100 126 0
-100 -126 0
77 8 0
-77 -8 0
12 114 0
-12 -114 0
132 83 0
-132 -83 0
28 84 0
-28 -84 0
38 84 0
-38 -84 0
23 21 0
-23 -21 0
120 5 0
-120 -5 0
67 84 0
-67 -84 0
50 81 0
-50 -81 0
112 27 0
-112 -27 0
26 46 0
-26 -46 0
87 51 0
-87 -51 0
2 131 0
-2 -131 0
57 7 0
-57 -7 0
10 90 0
-10 -90 0
59 66 0
-59 -66 0
90 8 0
-90 -8 0
107 118 0
-107 -118 0
96 8 0
-96 -8 0
52 7 0
-52 -7 0
79 140 0
-79 -140 0
103 101 0
-103 -101 0
115 132 0
-115 -132 0
124 62 0
-124 -62 0
83 131 0
-83 -131 0
119 134 0
-119 -134 0
33 115 0
-33 -115 0
33 97 0
-33 -97 0
19 14 0
-19 -14 0
16 105 0
-16 -105 0
87 92 0
-87 -92 0
96 37 0
-96 -37 0
64 49 0
-64 -49 0
129 45 0
-129 -45 0
137 84 0
-137 -84 0
85 10 0
-85 -10 0
44 11 0
-44 -11 0
131 3 0
-131 -3 0
119 111 0
-119 -111 0
85 35 0
-85 -35 0
112 11 0
-112 -11 0
47 33 0
-47 -33 0
96 94 0
-96 -94 0
61 71 0
-61 -71 0
19 71 0
-19 -71 0
100 132 0
-100 -132 0
136 108 0
-136 -108 0
55 98 0
-55 -98 0
121 8 0
-121 -8 0
75 28 0
-75 -28 0
85 69 0
-85 -69 0
110 83 0
-110 -83 0
31 92 0
-31 -92 0
85 8 0
-85 -8 0
83 84 0
-83 -84 0
89 49 0
-89 -49 0
121 44 0
-121 -44 0
128 50 0
-128 -50 0
102 133 0
-102 -133 0
23 32 0
-23 -32 0
111 94 0
-111 -94 0
61 89 0
-61 -89 0
96 114 0
-96 -114 0
108 66 0
-108 -66 0
24 134 0
-24 -134 0
80 15 0
-80 -15 0
45 18 0
-45 -18 0
101 37 0
-101 -37 0
108 36 0
-108 -36 0
72 92 0
-72 -92 0
100 34 0
-100 -34 0
136 71 0
-136 -71 0
72 39 0
-72 -39 0
52 26 0
-52 -26 0
75 134 0
-75 -134 0
8 68 0
-8 -68 0
88 28 0
-88 -28 0
128 13 0
-128 -13 0
134 103 0
-134 -103 0
83 13 0
-83 -13 0
31 69 0
-31 -69 0
47 7 0
-47 -7 0
113 103 0
-113 -103 0
129 14 0
-129 -14 0
92 14 0
-92 -14 0
62 13 0
-62 -13 0
67 63 0
-67 -63 0
138 20 0
-138 -20 0
87 42 0
-87 -42 0
5 111 0
-5 -111 0
1 105 0
-1 -105 0
36 3 0
-36 -3 0
89 93 0
-89 -93 0
64 90 0
-64 -90 0
47 98 0
-47 -98 0
88 50 0
-88 -50 0
62 122 0
-62 -122 0
106 125 0
-106 -125 0
79 95 0
-79 -95 0
91 108 0
-91 -108 0
74 125 0
-74 -125 0
55 105 0
-55 -105 0
96 56 0
-96 -56 0
137 114 0
-137 -114 0
62 11 0
-62 -11 0
20 105 0
-20 -105 0
118 18 0
-118 -18 0
113 45 0
-113 -45 0
12 54 0
-12 -54 0
25 57 0
-25 -57 0
67 133 0
-67 -133 0
90 110 0
-90 -110 0
59 21 0
-59 -21 0
87 122 0
-87 -122 0
124 31 0
-124 -31 0
85 97 0
-85 -97 0
16 77 0
-16 -77 0
88 41 0
-88 -41 0
79 111 0
-79 -111 0
131 76 0
-131 -76 0
35 103 0
-35 -103 0
109 9 0
-109 -9 0
86 15 0
-86 -15 0
112 59 0
-112 -59 0
130 11 0
-130 -11 0
19 32 0
-19 -32 0
67 111 0
-67 -111 0
5 60 0
-5 -60 0
44 126 0
-44 -126 0
79 15 0
-79 -15 0
124 61 0
-124 -61 0
7 4 0
-7 -4 0
127 115 0
-127 -115 0
43 54 0
-43 -54 0
138 14 0
-138 -14 0
51 84 0
-51 -84 0
38 78 0
-38 -78 0
72 134 0
-72 -134 0
2 42 0
-2 -42 0
87 107 0
-87 -107 0
56 131 0
-56 -131 0
98 56 0
-98 -56 0
24 3 0
-24 -3 0
124 139 0
-124 -139 0
104 15 0
-104 -15 0
115 45 0
-115 -45 0
129 109 0
-129 -109 0
75 82 0
-75 -82 0
100 111 0
-100 -111 0
40 115 0
-40 -115 0
72 86 0
-72 -86 0
7 71 0
-7 -71 0
52 78 0
-52 -78 0
17 49 0
-17 -49 0
127 104 0
-127 -104 0
85 4 0
-85 -4 0
